PatchBench/BenchmarksExist/FFmpeg/CWE-189-Numeric-Errors/CVE_2013_0864_9547034f9120187e23ad76424dd4d70247e62212/gif_copy_img_rect_SnippetExist32.smt2
; benchmark generated from python API
(set-info :status unknown)
(declare-fun rsi () (_ BitVec 64))
(declare-fun rdi () (_ BitVec 64))
(assert
 (let ((?x6 ((_ extract 31 0) rsi)))
 (let ((?x10 ((_ extract 31 0) rdi)))
 (let (($x951 (= ?x10 ?x6)))
 (and $x951)))))
(check-sat)
